p tdp 32 61
5 15
7 18
1 17
28 30
12 19
4 20
10 11
2 22
6 16
14 15
6 23
21 27
8 31
2 6
24 30
9 27
8 11
17 22
27 29
5 13
9 26
18 19
10 20
13 25
27 31
3 8
24 32
7 31
12 22
13 16
11 24
6 29
7 10
16 21
19 21
2 7
4 15
7 13
8 32
22 31
16 24
13 17
22 26
9 30
12 20
4 30
4 9
5 16
9 10
10 31
2 15
1 8
4 32
21 24
10 14
15 29
10 13
4 28
6 11
1 15
13 22
